problems/problems/cplex/D1.S1.T1_9.dat
M = 99999999.0;
numWorkers = 15;
numRoles = 3;
numNodes = 40;
wStart = [0, 0, 0, 0, 0, 0, 0, 0, 0, 0, 0, 0, 0, 0, 0, 90, 60, 60, 30, 60, 270, 90, 30, 60, 90, 480, 480, 480, 480, 480, 480, 480, 480, 480, 480, 480, 480, 480, 480, 480];
wEnd = [0, 0, 0, 0, 0, 0, 0, 0, 0, 0, 0, 0, 0, 0, 0, 420, 330, 270, 390, 390, 300, 390, 390, 330, 390, 480, 480, 480, 480, 480, 480, 480, 480, 480, 480, 480, 480, 480, 480, 480];
p = [0, 0, 0, 0, 0, 0, 0, 0, 0, 0, 0, 0, 0, 0, 0, 74.30523805506132, 41.294789534271345, 44.93120438562288, 56.28925700049666, 30.0152031318498, 47.22553410552646, 43.79483247839119, 28.14462850024833, 20.647394767135673, 21.897416239195596, 0, 0, 0, 0, 0, 0, 0, 0, 0, 0, 0, 0, 0, 0, 0];
e = [[0, 1, 1], [0, 1, 0], [1, 1, 0], [1, 1, 0], [1, 1, 0], [0, 1, 1], [0, 1, 1], [0, 1, 0], [0, 1, 1], [1, 1, 0], [1, 1, 0], [0, 0, 1], [1, 0, 0], [0, 0, 1], [0, 1, 0]];
d = [[1, 1, 0, 0, 1, 0, 1, 0, 2, 2], [1, 1, 1, 1, 1, 1, 1, 2, 2, 2], [0, 0, 0, 0, 0, 0, 1, 0, 0, 2]];
r = [4124, 977, 1872, 794, 535, 447, 2130, 794, 977, 2130];
g = [[0, 0, 0, 0, 0, 0, 0, 0, 0, 0], [0, 0, 0, 0, 0, 0, 0, 0, 1, 0], [0, 0, 0, 0, 0, 0, 0, 0, 0, 0], [0, 0, 0, 0, 0, 0, 0, 1, 0, 0], [0, 0, 0, 0, 0, 0, 0, 0, 0, 0], [0, 0, 0, 0, 0, 0, 0, 0, 0, 0], [0, 0, 0, 0, 0, 0, 0, 0, 0, 1], [0, 0, 0, 1, 0, 0, 0, 0, 0, 0], [0, 1, 0, 0, 0, 0, 0, 0, 0, 0], [0, 0, 0, 0, 0, 0, 1, 0, 0, 0]];
t = [[0.0, 0.0, 0.0, 0.0, 0.0, 0.0, 0.0, 0.0, 0.0, 0.0, 0.0, 0.0, 0.0, 0.0, 0.0, 4.634064573023369, 26.528541165393868, 10.649600744345742, 11.737335321636156, 8.658644949942934, 20.446356137910538, 28.438035057165735, 11.737335321636156, 26.528541165393868, 28.438035057165735, 0.0, 0.0, 0.0, 0.0, 0.0, 0.0, 0.0, 0.0, 0.0, 0.0, 0.0, 0.0, 0.0, 0.0, 0.0], [0.0, 0.0, 0.0, 0.0, 0.0, 0.0, 0.0, 0.0, 0.0, 0.0, 0.0, 0.0, 0.0, 0.0, 0.0, 4.634064573023369, 26.528541165393868, 10.649600744345742, 11.737335321636156, 8.658644949942934, 20.446356137910538, 28.438035057165735, 11.737335321636156, 26.528541165393868, 28.438035057165735, 0.0, 0.0, 0.0, 0.0, 0.0, 0.0, 0.0, 0.0, 0.0, 0.0, 0.0, 0.0, 0.0, 0.0, 0.0], [0.0, 0.0, 0.0, 0.0, 0.0, 0.0, 0.0, 0.0, 0.0, 0.0, 0.0, 0.0, 0.0, 0.0, 0.0, 4.634064573023369, 26.528541165393868, 10.649600744345742, 11.737335321636156, 8.658644949942934, 20.446356137910538, 28.438035057165735, 11.737335321636156, 26.528541165393868, 28.438035057165735, 0.0, 0.0, 0.0, 0.0, 0.0, 0.0, 0.0, 0.0, 0.0, 0.0, 0.0, 0.0, 0.0, 0.0, 0.0], [0.0, 0.0, 0.0, 0.0, 0.0, 0.0, 0.0, 0.0, 0.0, 0.0, 0.0, 0.0, 0.0, 0.0, 0.0, 4.634064573023369, 26.528541165393868, 10.649600744345742, 11.737335321636156, 8.658644949942934, 20.446356137910538, 28.438035057165735, 11.737335321636156, 26.528541165393868, 28.438035057165735, 0.0, 0.0, 0.0, 0.0, 0.0, 0.0, 0.0, 0.0, 0.0, 0.0, 0.0, 0.0, 0.0, 0.0, 0.0], [0.0, 0.0, 0.0, 0.0, 0.0, 0.0, 0.0, 0.0, 0.0, 0.0, 0.0, 0.0, 0.0, 0.0, 0.0, 4.634064573023369, 26.528541165393868, 10.649600744345742, 11.737335321636156, 8.658644949942934, 20.446356137910538, 28.438035057165735, 11.737335321636156, 26.528541165393868, 28.438035057165735, 0.0, 0.0, 0.0, 0.0, 0.0, 0.0, 0.0, 0.0, 0.0, 0.0, 0.0, 0.0, 0.0, 0.0, 0.0], [0.0, 0.0, 0.0, 0.0, 0.0, 0.0, 0.0, 0.0, 0.0, 0.0, 0.0, 0.0, 0.0, 0.0, 0.0, 4.634064573023369, 26.528541165393868, 10.649600744345742, 11.737335321636156, 8.658644949942934, 20.446356137910538, 28.438035057165735, 11.737335321636156, 26.528541165393868, 28.438035057165735, 0.0, 0.0, 0.0, 0.0, 0.0, 0.0, 0.0, 0.0, 0.0, 0.0, 0.0, 0.0, 0.0, 0.0, 0.0], [0.0, 0.0, 0.0, 0.0, 0.0, 0.0, 0.0, 0.0, 0.0, 0.0, 0.0, 0.0, 0.0, 0.0, 0.0, 4.634064573023369, 26.528541165393868, 10.649600744345742, 11.737335321636156, 8.658644949942934, 20.446356137910538, 28.438035057165735, 11.737335321636156, 26.528541165393868, 28.438035057165735, 0.0, 0.0, 0.0, 0.0, 0.0, 0.0, 0.0, 0.0, 0.0, 0.0, 0.0, 0.0, 0.0, 0.0, 0.0], [0.0, 0.0, 0.0, 0.0, 0.0, 0.0, 0.0, 0.0, 0.0, 0.0, 0.0, 0.0, 0.0, 0.0, 0.0, 4.634064573023369, 26.528541165393868, 10.649600744345742, 11.737335321636156, 8.658644949942934, 20.446356137910538, 28.438035057165735, 11.737335321636156, 26.528541165393868, 28.438035057165735, 0.0, 0.0, 0.0, 0.0, 0.0, 0.0, 0.0, 0.0, 0.0, 0.0, 0.0, 0.0, 0.0, 0.0, 0.0], [0.0, 0.0, 0.0, 0.0, 0.0, 0.0, 0.0, 0.0, 0.0, 0.0, 0.0, 0.0, 0.0, 0.0, 0.0, 4.634064573023369, 26.528541165393868, 10.649600744345742, 11.737335321636156, 8.658644949942934, 20.446356137910538, 28.438035057165735, 11.737335321636156, 26.528541165393868, 28.438035057165735, 0.0, 0.0, 0.0, 0.0, 0.0, 0.0, 0.0, 0.0, 0.0, 0.0, 0.0, 0.0, 0.0, 0.0, 0.0], [0.0, 0.0, 0.0, 0.0, 0.0, 0.0, 0.0, 0.0, 0.0, 0.0, 0.0, 0.0, 0.0, 0.0, 0.0, 4.634064573023369, 26.528541165393868, 10.649600744345742, 11.737335321636156, 8.658644949942934, 20.446356137910538, 28.438035057165735, 11.737335321636156, 26.528541165393868, 28.438035057165735, 0.0, 0.0, 0.0, 0.0, 0.0, 0.0, 0.0, 0.0, 0.0, 0.0, 0.0, 0.0, 0.0, 0.0, 0.0], [0.0, 0.0, 0.0, 0.0, 0.0, 0.0, 0.0, 0.0, 0.0, 0.0, 0.0, 0.0, 0.0, 0.0, 0.0, 4.634064573023369, 26.528541165393868, 10.649600744345742, 11.737335321636156, 8.658644949942934, 20.446356137910538, 28.438035057165735, 11.737335321636156, 26.528541165393868, 28.438035057165735, 0.0, 0.0, 0.0, 0.0, 0.0, 0.0, 0.0, 0.0, 0.0, 0.0, 0.0, 0.0, 0.0, 0.0, 0.0], [0.0, 0.0, 0.0, 0.0, 0.0, 0.0, 0.0, 0.0, 0.0, 0.0, 0.0, 0.0, 0.0, 0.0, 0.0, 4.634064573023369, 26.528541165393868, 10.649600744345742, 11.737335321636156, 8.658644949942934, 20.446356137910538, 28.438035057165735, 11.737335321636156, 26.528541165393868, 28.438035057165735, 0.0, 0.0, 0.0, 0.0, 0.0, 0.0, 0.0, 0.0, 0.0, 0.0, 0.0, 0.0, 0.0, 0.0, 0.0], [0.0, 0.0, 0.0, 0.0, 0.0, 0.0, 0.0, 0.0, 0.0, 0.0, 0.0, 0.0, 0.0, 0.0, 0.0, 4.634064573023369, 26.528541165393868, 10.649600744345742, 11.737335321636156, 8.658644949942934, 20.446356137910538, 28.438035057165735, 11.737335321636156, 26.528541165393868, 28.438035057165735, 0.0, 0.0, 0.0, 0.0, 0.0, 0.0, 0.0, 0.0, 0.0, 0.0, 0.0, 0.0, 0.0, 0.0, 0.0], [0.0, 0.0, 0.0, 0.0, 0.0, 0.0, 0.0, 0.0, 0.0, 0.0, 0.0, 0.0, 0.0, 0.0, 0.0, 4.634064573023369, 26.528541165393868, 10.649600744345742, 11.737335321636156, 8.658644949942934, 20.446356137910538, 28.438035057165735, 11.737335321636156, 26.528541165393868, 28.438035057165735, 0.0, 0.0, 0.0, 0.0, 0.0, 0.0, 0.0, 0.0, 0.0, 0.0, 0.0, 0.0, 0.0, 0.0, 0.0], [0.0, 0.0, 0.0, 0.0, 0.0, 0.0, 0.0, 0.0, 0.0, 0.0, 0.0, 0.0, 0.0, 0.0, 0.0, 4.634064573023369, 26.528541165393868, 10.649600744345742, 11.737335321636156, 8.658644949942934, 20.446356137910538, 28.438035057165735, 11.737335321636156, 26.528541165393868, 28.438035057165735, 0.0, 0.0, 0.0, 0.0, 0.0, 0.0, 0.0, 0.0, 0.0, 0.0, 0.0, 0.0, 0.0, 0.0, 0.0], [4.634064573023369, 4.634064573023369, 4.634064573023369, 4.634064573023369, 4.634064573023369, 4.634064573023369, 4.634064573023369, 4.634064573023369, 4.634064573023369, 4.634064573023369, 4.634064573023369, 4.634064573023369, 4.634064573023369, 4.634064573023369, 4.634064573023369, 0.0, 25.755025156934515, 10.903398538362664, 15.879790754660554, 13.101159215666694, 18.515772542444036, 30.0, 15.879790754660554, 25.755025156934515, 30.0, 4.634064573023369, 4.634064573023369, 4.634064573023369, 4.634064573023369, 4.634064573023369, 4.634064573023369, 4.634064573023369, 4.634064573023369, 4.634064573023369, 4.634064573023369, 4.634064573023369, 4.634064573023369, 4.634064573023369, 4.634064573023369, 4.634064573023369], [26.528541165393868, 26.528541165393868, 26.528541165393868, 26.528541165393868, 26.528541165393868, 26.528541165393868, 26.528541165393868, 26.528541165393868, 26.528541165393868, 26.528541165393868, 26.528541165393868, 26.528541165393868, 26.528541165393868, 26.528541165393868, 26.528541165393868, 25.755025156934515, 0.0, 15.953517298251183, 25.73301203072183, 27.05227859727765, 8.917251894051502, 14.319394353339122, 25.73301203072183, 0.0, 14.319394353339122, 26.528541165393868, 26.528541165393868, 26.528541165393868, 26.528541165393868, 26.528541165393868, 26.528541165393868, 26.528541165393868, 26.528541165393868, 26.528541165393868, 26.528541165393868, 26.528541165393868, 26.528541165393868, 26.528541165393868, 26.528541165393868, 26.528541165393868], [10.649600744345742, 10.649600744345742, 10.649600744345742, 10.649600744345742, 10.649600744345742, 10.649600744345742, 10.649600744345742, 10.649600744345742, 10.649600744345742, 10.649600744345742, 10.649600744345742, 10.649600744345742, 10.649600744345742, 10.649600744345742, 10.649600744345742, 10.903398538362664, 15.953517298251183, 0.0, 12.552474398322616, 12.36261946400744, 11.21878847381057, 19.28206565671002, 12.552474398322616, 15.953517298251183, 19.28206565671002, 10.649600744345742, 10.649600744345742, 10.649600744345742, 10.649600744345742, 10.649600744345742, 10.649600744345742, 10.649600744345742, 10.649600744345742, 10.649600744345742, 10.649600744345742, 10.649600744345742, 10.649600744345742, 10.649600744345742, 10.649600744345742, 10.649600744345742], [11.737335321636156, 11.737335321636156, 11.737335321636156, 11.737335321636156, 11.737335321636156, 11.737335321636156, 11.737335321636156, 11.737335321636156, 11.737335321636156, 11.737335321636156, 11.737335321636156, 11.737335321636156, 11.737335321636156, 11.737335321636156, 11.737335321636156, 15.879790754660554, 25.73301203072183, 12.552474398322616, 0.0, 3.6234822032521095, 23.46153397402653, 21.466292512712666, 0.0, 25.73301203072183, 21.466292512712666, 11.737335321636156, 11.737335321636156, 11.737335321636156, 11.737335321636156, 11.737335321636156, 11.737335321636156, 11.737335321636156, 11.737335321636156, 11.737335321636156, 11.737335321636156, 11.737335321636156, 11.737335321636156, 11.737335321636156, 11.737335321636156, 11.737335321636156], [8.658644949942934, 8.658644949942934, 8.658644949942934, 8.658644949942934, 8.658644949942934, 8.658644949942934, 8.658644949942934, 8.658644949942934, 8.658644949942934, 8.658644949942934, 8.658644949942934, 8.658644949942934, 8.658644949942934, 8.658644949942934, 8.658644949942934, 13.101159215666694, 27.05227859727765, 12.36261946400744, 3.6234822032521095, 0.0, 23.57835584540267, 24.404768022258896, 3.6234822032521095, 27.05227859727765, 24.404768022258896, 8.658644949942934, 8.658644949942934, 8.658644949942934, 8.658644949942934, 8.658644949942934, 8.658644949942934, 8.658644949942934, 8.658644949942934, 8.658644949942934, 8.658644949942934, 8.658644949942934, 8.658644949942934, 8.658644949942934, 8.658644949942934, 8.658644949942934], [20.446356137910538, 20.446356137910538, 20.446356137910538, 20.446356137910538, 20.446356137910538, 20.446356137910538, 20.446356137910538, 20.446356137910538, 20.446356137910538, 20.446356137910538, 20.446356137910538, 20.446356137910538, 20.446356137910538, 20.446356137910538, 20.446356137910538, 18.515772542444036, 8.917251894051502, 11.21878847381057, 23.46153397402653, 23.57835584540267, 0.0, 20.48212352458216, 23.46153397402653, 8.917251894051502, 20.48212352458216, 20.446356137910538, 20.446356137910538, 20.446356137910538, 20.446356137910538, 20.446356137910538, 20.446356137910538, 20.446356137910538, 20.446356137910538, 20.446356137910538, 20.446356137910538, 20.446356137910538, 20.446356137910538, 20.446356137910538, 20.446356137910538, 20.446356137910538], [28.438035057165735, 28.438035057165735, 28.438035057165735, 28.438035057165735, 28.438035057165735, 28.438035057165735, 28.438035057165735, 28.438035057165735, 28.438035057165735, 28.438035057165735, 28.438035057165735, 28.438035057165735, 28.438035057165735, 28.438035057165735, 28.438035057165735, 30.0, 14.319394353339122, 19.28206565671002, 21.466292512712666, 24.404768022258896, 20.48212352458216, 0.0, 21.466292512712666, 14.319394353339122, 0.0, 28.438035057165735, 28.438035057165735, 28.438035057165735, 28.438035057165735, 28.438035057165735, 28.438035057165735, 28.438035057165735, 28.438035057165735, 28.438035057165735, 28.438035057165735, 28.438035057165735, 28.438035057165735, 28.438035057165735, 28.438035057165735, 28.438035057165735], [11.737335321636156, 11.737335321636156, 11.737335321636156, 11.737335321636156, 11.737335321636156, 11.737335321636156, 11.737335321636156, 11.737335321636156, 11.737335321636156, 11.737335321636156, 11.737335321636156, 11.737335321636156, 11.737335321636156, 11.737335321636156, 11.737335321636156, 15.879790754660554, 25.73301203072183, 12.552474398322616, 0.0, 3.6234822032521095, 23.46153397402653, 21.466292512712666, 0.0, 25.73301203072183, 21.466292512712666, 11.737335321636156, 11.737335321636156, 11.737335321636156, 11.737335321636156, 11.737335321636156, 11.737335321636156, 11.737335321636156, 11.737335321636156, 11.737335321636156, 11.737335321636156, 11.737335321636156, 11.737335321636156, 11.737335321636156, 11.737335321636156, 11.737335321636156], [26.528541165393868, 26.528541165393868, 26.528541165393868, 26.528541165393868, 26.528541165393868, 26.528541165393868, 26.528541165393868, 26.528541165393868, 26.528541165393868, 26.528541165393868, 26.528541165393868, 26.528541165393868, 26.528541165393868, 26.528541165393868, 26.528541165393868, 25.755025156934515, 0.0, 15.953517298251183, 25.73301203072183, 27.05227859727765, 8.917251894051502, 14.319394353339122, 25.73301203072183, 0.0, 14.319394353339122, 26.528541165393868, 26.528541165393868, 26.528541165393868, 26.528541165393868, 26.528541165393868, 26.528541165393868, 26.528541165393868, 26.528541165393868, 26.528541165393868, 26.528541165393868, 26.528541165393868, 26.528541165393868, 26.528541165393868, 26.528541165393868, 26.528541165393868], [28.438035057165735, 28.438035057165735, 28.438035057165735, 28.438035057165735, 28.438035057165735, 28.438035057165735, 28.438035057165735, 28.438035057165735, 28.438035057165735, 28.438035057165735, 28.438035057165735, 28.438035057165735, 28.438035057165735, 28.438035057165735, 28.438035057165735, 30.0, 14.319394353339122, 19.28206565671002, 21.466292512712666, 24.404768022258896, 20.48212352458216, 0.0, 21.466292512712666, 14.319394353339122, 0.0, 28.438035057165735, 28.438035057165735, 28.438035057165735, 28.438035057165735, 28.438035057165735, 28.438035057165735, 28.438035057165735, 28.438035057165735, 28.438035057165735, 28.438035057165735, 28.438035057165735, 28.438035057165735, 28.438035057165735, 28.438035057165735, 28.438035057165735], [0.0, 0.0, 0.0, 0.0, 0.0, 0.0, 0.0, 0.0, 0.0, 0.0, 0.0, 0.0, 0.0, 0.0, 0.0, 4.634064573023369, 26.528541165393868, 10.649600744345742, 11.737335321636156, 8.658644949942934, 20.446356137910538, 28.438035057165735, 11.737335321636156, 26.528541165393868, 28.438035057165735, 0.0, 0.0, 0.0, 0.0, 0.0, 0.0, 0.0, 0.0, 0.0, 0.0, 0.0, 0.0, 0.0, 0.0, 0.0], [0.0, 0.0, 0.0, 0.0, 0.0, 0.0, 0.0, 0.0, 0.0, 0.0, 0.0, 0.0, 0.0, 0.0, 0.0, 4.634064573023369, 26.528541165393868, 10.649600744345742, 11.737335321636156, 8.658644949942934, 20.446356137910538, 28.438035057165735, 11.737335321636156, 26.528541165393868, 28.438035057165735, 0.0, 0.0, 0.0, 0.0, 0.0, 0.0, 0.0, 0.0, 0.0, 0.0, 0.0, 0.0, 0.0, 0.0, 0.0], [0.0, 0.0, 0.0, 0.0, 0.0, 0.0, 0.0, 0.0, 0.0, 0.0, 0.0, 0.0, 0.0, 0.0, 0.0, 4.634064573023369, 26.528541165393868, 10.649600744345742, 11.737335321636156, 8.658644949942934, 20.446356137910538, 28.438035057165735, 11.737335321636156, 26.528541165393868, 28.438035057165735, 0.0, 0.0, 0.0, 0.0, 0.0, 0.0, 0.0, 0.0, 0.0, 0.0, 0.0, 0.0, 0.0, 0.0, 0.0], [0.0, 0.0, 0.0, 0.0, 0.0, 0.0, 0.0, 0.0, 0.0, 0.0, 0.0, 0.0, 0.0, 0.0, 0.0, 4.634064573023369, 26.528541165393868, 10.649600744345742, 11.737335321636156, 8.658644949942934, 20.446356137910538, 28.438035057165735, 11.737335321636156, 26.528541165393868, 28.438035057165735, 0.0, 0.0, 0.0, 0.0, 0.0, 0.0, 0.0, 0.0, 0.0, 0.0, 0.0, 0.0, 0.0, 0.0, 0.0], [0.0, 0.0, 0.0, 0.0, 0.0, 0.0, 0.0, 0.0, 0.0, 0.0, 0.0, 0.0, 0.0, 0.0, 0.0, 4.634064573023369, 26.528541165393868, 10.649600744345742, 11.737335321636156, 8.658644949942934, 20.446356137910538, 28.438035057165735, 11.737335321636156, 26.528541165393868, 28.438035057165735, 0.0, 0.0, 0.0, 0.0, 0.0, 0.0, 0.0, 0.0, 0.0, 0.0, 0.0, 0.0, 0.0, 0.0, 0.0], [0.0, 0.0, 0.0, 0.0, 0.0, 0.0, 0.0, 0.0, 0.0, 0.0, 0.0, 0.0, 0.0, 0.0, 0.0, 4.634064573023369, 26.528541165393868, 10.649600744345742, 11.737335321636156, 8.658644949942934, 20.446356137910538, 28.438035057165735, 11.737335321636156, 26.528541165393868, 28.438035057165735, 0.0, 0.0, 0.0, 0.0, 0.0, 0.0, 0.0, 0.0, 0.0, 0.0, 0.0, 0.0, 0.0, 0.0, 0.0], [0.0, 0.0, 0.0, 0.0, 0.0, 0.0, 0.0, 0.0, 0.0, 0.0, 0.0, 0.0, 0.0, 0.0, 0.0, 4.634064573023369, 26.528541165393868, 10.649600744345742, 11.737335321636156, 8.658644949942934, 20.446356137910538, 28.438035057165735, 11.737335321636156, 26.528541165393868, 28.438035057165735, 0.0, 0.0, 0.0, 0.0, 0.0, 0.0, 0.0, 0.0, 0.0, 0.0, 0.0, 0.0, 0.0, 0.0, 0.0], [0.0, 0.0, 0.0, 0.0, 0.0, 0.0, 0.0, 0.0, 0.0, 0.0, 0.0, 0.0, 0.0, 0.0, 0.0, 4.634064573023369, 26.528541165393868, 10.649600744345742, 11.737335321636156, 8.658644949942934, 20.446356137910538, 28.438035057165735, 11.737335321636156, 26.528541165393868, 28.438035057165735, 0.0, 0.0, 0.0, 0.0, 0.0, 0.0, 0.0, 0.0, 0.0, 0.0, 0.0, 0.0, 0.0, 0.0, 0.0], [0.0, 0.0, 0.0, 0.0, 0.0, 0.0, 0.0, 0.0, 0.0, 0.0, 0.0, 0.0, 0.0, 0.0, 0.0, 4.634064573023369, 26.528541165393868, 10.649600744345742, 11.737335321636156, 8.658644949942934, 20.446356137910538, 28.438035057165735, 11.737335321636156, 26.528541165393868, 28.438035057165735, 0.0, 0.0, 0.0, 0.0, 0.0, 0.0, 0.0, 0.0, 0.0, 0.0, 0.0, 0.0, 0.0, 0.0, 0.0], [0.0, 0.0, 0.0, 0.0, 0.0, 0.0, 0.0, 0.0, 0.0, 0.0, 0.0, 0.0, 0.0, 0.0, 0.0, 4.634064573023369, 26.528541165393868, 10.649600744345742, 11.737335321636156, 8.658644949942934, 20.446356137910538, 28.438035057165735, 11.737335321636156, 26.528541165393868, 28.438035057165735, 0.0, 0.0, 0.0, 0.0, 0.0, 0.0, 0.0, 0.0, 0.0, 0.0, 0.0, 0.0, 0.0, 0.0, 0.0], [0.0, 0.0, 0.0, 0.0, 0.0, 0.0, 0.0, 0.0, 0.0, 0.0, 0.0, 0.0, 0.0, 0.0, 0.0, 4.634064573023369, 26.528541165393868, 10.649600744345742, 11.737335321636156, 8.658644949942934, 20.446356137910538, 28.438035057165735, 11.737335321636156, 26.528541165393868, 28.438035057165735, 0.0, 0.0, 0.0, 0.0, 0.0, 0.0, 0.0, 0.0, 0.0, 0.0, 0.0, 0.0, 0.0, 0.0, 0.0], [0.0, 0.0, 0.0, 0.0, 0.0, 0.0, 0.0, 0.0, 0.0, 0.0, 0.0, 0.0, 0.0, 0.0, 0.0, 4.634064573023369, 26.528541165393868, 10.649600744345742, 11.737335321636156, 8.658644949942934, 20.446356137910538, 28.438035057165735, 11.737335321636156, 26.528541165393868, 28.438035057165735, 0.0, 0.0, 0.0, 0.0, 0.0, 0.0, 0.0, 0.0, 0.0, 0.0, 0.0, 0.0, 0.0, 0.0, 0.0], [0.0, 0.0, 0.0, 0.0, 0.0, 0.0, 0.0, 0.0, 0.0, 0.0, 0.0, 0.0, 0.0, 0.0, 0.0, 4.634064573023369, 26.528541165393868, 10.649600744345742, 11.737335321636156, 8.658644949942934, 20.446356137910538, 28.438035057165735, 11.737335321636156, 26.528541165393868, 28.438035057165735, 0.0, 0.0, 0.0, 0.0, 0.0, 0.0, 0.0, 0.0, 0.0, 0.0, 0.0, 0.0, 0.0, 0.0, 0.0], [0.0, 0.0, 0.0, 0.0, 0.0, 0.0, 0.0, 0.0, 0.0, 0.0, 0.0, 0.0, 0.0, 0.0, 0.0, 4.634064573023369, 26.528541165393868, 10.649600744345742, 11.737335321636156, 8.658644949942934, 20.446356137910538, 28.438035057165735, 11.737335321636156, 26.528541165393868, 28.438035057165735, 0.0, 0.0, 0.0, 0.0, 0.0, 0.0, 0.0, 0.0, 0.0, 0.0, 0.0, 0.0, 0.0, 0.0, 0.0], [0.0, 0.0, 0.0, 0.0, 0.0, 0.0, 0.0, 0.0, 0.0, 0.0, 0.0, 0.0, 0.0, 0.0, 0.0, 4.634064573023369, 26.528541165393868, 10.649600744345742, 11.737335321636156, 8.658644949942934, 20.446356137910538, 28.438035057165735, 11.737335321636156, 26.528541165393868, 28.438035057165735, 0.0, 0.0, 0.0, 0.0, 0.0, 0.0, 0.0, 0.0, 0.0, 0.0, 0.0, 0.0, 0.0, 0.0, 0.0]];
